\ENCODING=ISO-8859-1
\Problem name: IloCplex

Maximize
 obj: 3.5 x(1)(1)._#0 + 45.0999984741211 x(1)(2)._#1
      + 13.8000001907349 x(1)(3)._#2 + 15.8900003433228 x(1)(4)._#3
      + 9.61999988555908 x(1)(5)._#4 + 5.8899998664856 x(2)(1)._#5
      + 6.55999994277954 x(2)(2)._#6 + 7.82000017166138 x(2)(3)._#7
      + 8.11999988555908 x(2)(4)._#8 + 2.55999994277954 x(2)(5)._#9
      + 47.560001373291 x(3)(1)._#10 + 23.5 x(3)(2)._#11
      + 0.519999980926514 x(3)(3)._#12 + 3.14000010490417 x(3)(4)._#13
      + 6.94999980926514 x(3)(5)._#14 + x16#15
Subject To
 acaoMin(1)._#0:    3.5 x(1)(1)._#0 + 45.0999984741211 x(1)(2)._#1
                    + 13.8000001907349 x(1)(3)._#2
                    + 15.8900003433228 x(1)(4)._#3
                    + 9.61999988555908 x(1)(5)._#4 >= 24
 acaoMin(2)._#1:    5.8899998664856 x(2)(1)._#5 + 6.55999994277954 x(2)(2)._#6
                    + 7.82000017166138 x(2)(3)._#7
                    + 8.11999988555908 x(2)(4)._#8
                    + 2.55999994277954 x(2)(5)._#9 >= 24
 acaoMin(3)._#2:    47.560001373291 x(3)(1)._#10 + 23.5 x(3)(2)._#11
                    + 0.519999980926514 x(3)(3)._#12
                    + 3.14000010490417 x(3)(4)._#13
                    + 6.94999980926514 x(3)(5)._#14 >= 24
 percentDia(1)._#3: x(1)(1)._#0 + x(2)(1)._#5 + x(3)(1)._#10  = 1
 percentDia(2)._#4: x(1)(2)._#1 + x(2)(2)._#6 + x(3)(2)._#11  = 1
 percentDia(3)._#5: x(1)(3)._#2 + x(2)(3)._#7 + x(3)(3)._#12  = 1
 percentDia(4)._#6: x(1)(4)._#3 + x(2)(4)._#8 + x(3)(4)._#13  = 1
 percentDia(5)._#7: x(1)(5)._#4 + x(2)(5)._#9 + x(3)(5)._#14  = 1
Bounds
 0 <= x(1)(1)._#0 <= 1
 0 <= x(1)(2)._#1 <= 1
 0 <= x(1)(3)._#2 <= 1
 0 <= x(1)(4)._#3 <= 1
 0 <= x(1)(5)._#4 <= 1
 0 <= x(2)(1)._#5 <= 1
 0 <= x(2)(2)._#6 <= 1
 0 <= x(2)(3)._#7 <= 1
 0 <= x(2)(4)._#8 <= 1
 0 <= x(2)(5)._#9 <= 1
 0 <= x(3)(1)._#10 <= 1
 0 <= x(3)(2)._#11 <= 1
 0 <= x(3)(3)._#12 <= 1
 0 <= x(3)(4)._#13 <= 1
 0 <= x(3)(5)._#14 <= 1
      x16#15 = 0
End
